nNurses = 194;
nHours = 30;
minHours = 7;
maxHours = 8;
maxConsec = 6;
maxPresence = 18;
demand = [44, 41, 38, 37, 41, 39, 40, 35, 35, 38, 43, 44, 40, 41, 45, 46, 45, 46, 45, 40, 37, 34, 33, 33, 33, 28, 30, 25, 29, 29];
